c colouring generated by benchmark framework
p edge 74 301
v 1 8
v 2 1
v 3 4
v 4 3
v 5 10
v 6 5
v 7 0
v 8 8
v 9 1
v 10 3
v 11 7
v 12 1
v 13 5
v 14 6
v 15 10
v 16 0
v 17 10
v 18 4
v 19 9
v 20 0
v 21 4
v 22 2
v 23 3
v 24 0
v 25 1
v 26 5
v 27 1
v 28 3
v 29 0
v 30 4
v 31 2
v 32 5
v 33 8
v 34 1
v 35 5
v 36 3
v 37 3
v 38 5
v 39 9
v 40 4
v 41 0
v 42 7
v 43 4
v 44 0
v 45 1
v 46 2
v 47 10
v 48 2
v 49 9
v 50 2
v 51 10
v 52 3
v 53 0
v 54 8
v 55 6
v 56 5
v 57 7
v 58 7
v 59 3
v 60 8
v 61 7
v 62 9
v 63 7
v 64 2
v 65 5
v 66 3
v 67 5
v 68 4
v 69 4
v 70 6
v 71 2
v 72 0
v 73 2
v 74 6
